6037897626181539369509,8,1,2,09,4,1,2,08,5,1,2,05,7,1,2,04,10,1,2,02,6,1,2,011,8,1,2,04,3,1,2,02,12,1,2,012,12,1,2,08,7,1,2,013,5,1,2,010,8,1,2,011,12,1,2,011,9,1,2,05,14,1,2,012,12,1,2,012,12,1,2,013,6,1,2,07,5,1,2,014,8,1,2,07,12,1,2,07,5,1,2,011,12,1,2,013,7,1,2,011,11,1,2,02,2,1,2,09,7,1,2,09,7,1,2,02,14,1,2,08,7,1,2,02,8,1,2,013,8,1,2,015,1,1,2,02,11,1,2,03,11,1,2,013,15,1,2,015,3,1,2,05,11,1,2,012,11,1,2,013,13,1,2,015,12,1,2,015,1,1,2,07,12,1,2,09,15,1,2,05,9,1,2,03,9,1,2,011,8,1,2,012,10,1,2,06,6,1,2,0